NAME : single
TYPE : ATSP
DIMENSION : 12
EDGE_WEIGHT_TYPE : EXPLICIT
EDGE_WEIGHT_FORMAT : FULL_MATRIX
EDGE_WEIGHT_SECTION
0 100261 100281 100302 100328 100334 100329 100343 100350 100352 100383 100384 
0 0 139 151 1102 1259 1208 1339 958 643 553 298 
0 139 0 131 1140 1284 1282 1346 984 703 599 321 
0 151 131 0 1021 1177 1151 1250 875 578 479 209 
0 1102 1140 1021 0 380 272 537 174 354 501 811 
0 1259 1284 1177 380 0 168 182 302 689 710 967 
0 1208 1282 1151 272 168 0 325 221 587 622 929 
0 1339 1346 1250 537 182 325 0 405 769 809 1042 
0 958 984 875 174 302 221 405 0 364 411 666 
0 643 703 578 354 689 587 769 364 0 118 389 
0 553 599 479 501 710 622 809 411 118 0 279 
0 298 321 209 811 967 929 1042 666 389 279 0 
EOF